#************************************************************************************
#*                   Generated by cif2cell 2.1.0 2024-09-22 15:34                   *
#*  T. Bjorkman, Comp. Phys. Commun. 182, 1183-1186 (2011). Please cite generously. *
#*                                                                                  *
#*                              Data obtained from COD                              *
#*                                    None   ()                                     *
#*             Failed to get author information, No journal information             *
#************************************************************************************

&SYSTEM
  ibrav = 0
  A =    5.52400
  nat = 20
  ntyp = 3
/
CELL_PARAMETERS {angstrom}
  5.524000000000000   0.000000000000000   0.000000000000000 
  0.000000000000000   7.649000000000000   0.000000000000000 
  0.000000000000000   0.000000000000000   5.354000000000000 
ATOMIC_SPECIES
  Ru  101.07000  Ru_PSEUDO
  Ca   40.07800  Ca_PSEUDO
   O   15.99900   O_PSEUDO
ATOMIC_POSITIONS {angstrom}
Ru   0.000000000000000   0.000000000000000   2.677000000000000 
Ru   2.762000000000000   3.824500000000000   0.000000000000000 
Ru   2.762000000000000   0.000000000000000   0.000000000000000 
Ru   0.000000000000000   3.824500000000000   2.677000000000000 
Ca   5.219075200000000   1.912250000000000   0.074420600000000 
Ca   3.066924800000000   5.736749999999999   2.751420600000000 
Ca   0.304924800000000   5.736749999999999   5.279579400000000 
Ca   2.457075199999999   1.912250000000000   2.602579400000000 
 O   0.142519200000000   1.912250000000000   3.169567999999999 
 O   2.619480800000000   5.736749999999999   0.492568000000000 
 O   5.381480799999999   5.736749999999999   2.184432000000000 
 O   2.904519200000000   1.912250000000000   4.861432000000000 
 O   1.116400400000000   3.455818200000000   1.056344200000000 
 O   1.645599600000000   7.280318200000000   3.733344200000000 
 O   1.645599600000000   4.193181800000000   3.733344200000000 
 O   4.407599600000000   7.280318200000000   4.297655800000000 
 O   4.407599600000000   4.193181800000000   4.297655800000000 
 O   3.878400400000000   0.368681800000000   1.620655800000000 
 O   3.878400400000000   3.455818200000000   1.620655800000000 
 O   1.116400400000000   0.368681800000000   1.056344200000000 
